c turning on binary mode checking
c parsing input formula with 202048 variables and 780970 clauses
c finished parsing, read 30659217 bytes from proof file
c detected empty clause; start verification via backward checking
c 74284 of 780970 clauses in core                            
c 139904 of 656131 lemmas in core using 2389073 resolution steps
c 0 RAT lemmas in core; 23570 redundant literals in core lemmas
s VERIFIED
c verification time: 8.320 seconds
